1 1 -2 0
1 -3 4 0
1 3 2 0
1 -3 5 0
1 6 -7 0
1 6 -4 0
1 6 2 0
1 -6 -5 0
1 -8 -4 0
1 2 -9 0
1 -2 3 0
1 2 10 0
1 2 11 0
1 -12 13 0
1 -12 -14 0
1 -12 11 0
1 12 1 0
1 -4 8 0
1 4 -15 0
1 -4 16 0
1 4 -5 0
1 5 -17 0
1 11 -18 0
1 -11 -16 0
1 -14 19 0
1 10 7 0
1 -10 20 0
1 9 21 0
1 9 -2 0
1 -9 -22 0
1 -23 24 0
1 -23 -25 0
1 -23 -18 0
1 -23 26 0
1 -18 24 0
1 -18 8 0
1 18 27 0
1 18 -10 0
1 28 7 0
1 -28 -9 0
1 -28 14 0
1 28 -8 0
1 -28 29 0
1 -28 -30 0
1 7 -14 0
1 -7 8 0
1 -7 -31 0
1 7 -11 0
1 32 25 0
1 25 -33 0
1 -25 -32 0
1 -27 34 0
1 27 -30 0
1 27 -20 0
1 24 -18 0
1 24 -34 0
1 -24 -23 0
1 24 -20 0
1 -33 -25 0
1 -22 -25 0
1 22 -10 0
1 22 26 0
1 34 25 0
1 34 -29 0
1 34 32 0
1 34 35 0
1 16 -36 0
1 -16 37 0
1 16 -11 0
1 -19 37 0
1 -38 39 0
1 -38 40 0
1 38 -41 0
1 38 42 0
1 -21 4 0
1 21 37 0
1 21 -43 0
1 -39 41 0
1 -39 31 0
1 39 -38 0
1 -41 21 0
1 -41 -19 0
1 41 -30 0
1 41 -38 0
1 -36 -37 0
1 -37 19 0
1 37 16 0
1 31 7 0
1 31 40 0
1 31 -43 0
1 -13 7 0
1 13 25 0
1 13 40 0
1 -13 31 0
1 13 -41 0
1 13 42 0
1 -13 12 0
1 30 44 0
1 30 43 0
1 30 17 0
1 45 44 0
1 -45 28 0
1 45 -30 0
1 45 -42 0
1 40 46 0
1 -40 38 0
1 43 -21 0
1 -43 40 0
1 -43 38 0
1 44 -30 0
1 29 28 0
1 -29 -47 0
1 -29 -22 0
1 29 -17 0
1 -26 34 0
1 26 -15 0
1 -26 47 0
1 46 34 0
1 46 15 0
1 -46 -43 0
1 -46 -35 0
1 35 -15 0
1 35 43 0
1 -47 45 0
1 -47 30 0
1 48 29 0
1 48 26 0
1 15 -45 0
1 15 -26 0
1 17 15 0
1 17 -30 0
1 17 -35 0
